results_rootrelaxation/bin012_080_029.srr.sol
solution status: optimal solution found
objective value:                                 17.7
_var550_                                          0.3 	(obj:1)
_var712_                           0.0999999999999999 	(obj:2)
_var744_                                        0.075 	(obj:2)
_var745_                                       0.0125 	(obj:1)
_var747_                                         0.75 	(obj:0)
_var766_                                         0.15 	(obj:2)
_var786_                                          0.2 	(obj:2)
_var790_                                       0.1875 	(obj:1)
_var793_                                          0.7 	(obj:1)
_var796_                                          0.2 	(obj:1)
_var799_                                        0.125 	(obj:2)
_var801_                                          0.3 	(obj:1)
_var811_                                       0.3375 	(obj:1)
_var816_                                       0.1875 	(obj:2)
_var820_                                       0.1875 	(obj:3)
_var822_                                         0.35 	(obj:2)
_var830_                                       0.1125 	(obj:2)
_var839_                                       0.5125 	(obj:3)
_var843_                           0.0500000000000001 	(obj:2)
_var847_                                          0.2 	(obj:1)
_var848_                                          0.3 	(obj:1)
_var853_                           0.0500000000000002 	(obj:3)
_var857_                                         0.25 	(obj:0)
_var858_                                          0.2 	(obj:1)
_var862_                                          0.5 	(obj:1)
_var863_                                       0.3375 	(obj:2)
_var865_                                         0.15 	(obj:2)
_var867_                                       0.1375 	(obj:2)
_var873_                                          0.3 	(obj:2)
_var875_                                        0.075 	(obj:3)
_var877_                                         0.15 	(obj:2)
_var878_                                        0.375 	(obj:2)
_var882_                                        0.475 	(obj:1)
_var883_                                        0.225 	(obj:3)
_var886_                                          0.3 	(obj:3)
_var887_                                         0.15 	(obj:2)
_var892_                                          0.2 	(obj:1)
_var896_                                         0.25 	(obj:2)
_var899_                                        0.125 	(obj:2)
_var903_                                        0.125 	(obj:2)
_var904_                                         0.05 	(obj:2)
_var924_                                          0.2 	(obj:3)
_var925_                           0.0624999999999997 	(obj:2)
_var926_                                        0.175 	(obj:2)
_var929_                                        0.175 	(obj:2)
_var930_                           0.0375000000000001 	(obj:2)
_var932_                                       0.1625 	(obj:2)
_var933_                           0.0875000000000001 	(obj:2)
_var935_                           0.0499999999999999 	(obj:2)
_var936_                           0.0999999999999999 	(obj:2)
_var938_                                        0.125 	(obj:2)
_var941_                           0.0624999999999999 	(obj:3)
